letting n =  10
letting blocks =  [[1, 1], [1, 7], [1, 9], [1, 10], [2, 3], [2, 4], [2, 6], [2, 9], [2, 10], [3, 1], [3, 3], [3, 10], [4, 4], [4, 6], [4, 7], [4, 10], [5, 3], [5, 5], [5, 6], [5, 7], [5, 8], [6, 5], [6, 6], [6, 7], [6, 9], [7, 2], [7, 5], [7, 6], [7, 8], [7, 9], [7, 10], [8, 3], [8, 4], [8, 6], [8, 7], [8, 8], [9, 1], [9, 2], [9, 4], [9, 5], [9, 8], [9, 9], [10, 1], [10, 2], [10, 3], [10, 4], [10, 9], [10, 10]]
